c instance by G2
c solution = 1000111
c Known solution cost is 244 
p cnf 7 30
w 48 28 74 38 12 38 6
-1 7 -6 0
3 -7 5 0
1 -2 -7 0
4 -6 1 0
-1 5 -3 0
3 7 4 0
6 -5 -1 0
-1 6 4 0
3 -4 -6 0
5 -4 -2 0
6 1 -5 0
4 1 2 0
3 -6 5 0
-2 -3 5 0
-6 1 4 0
2 -5 -3 0
-4 -3 5 0
6 -2 5 0
-3 -7 -6 0
4 6 -5 0
4 6 -7 0
2 1 -6 0
4 -1 -3 0
5 6 2 0
1 7 4 0
3 -4 -5 0
2 -4 -7 0
-2 -6 3 0
2 1 -4 0
5 3 -2 0
